\Problem name: compact

Minimize
OBJROW: C
Subject To
ord(0,1):  - x(0,1) + x(0,3) >= 6
ord(0,2):  x(0,0) - x(0,3) >= 2
ord(0,3):  - x(0,0) + x(0,2) >= 8
ord(1,1):  x(1,1) - x(1,2) >= 1
ord(1,2):  - x(1,1) + x(1,3) >= 10
ord(1,3):  x(1,0) - x(1,3) >= 4
ord(2,1):  x(2,0) - x(2,1) >= 9
ord(2,2):  - x(2,0) + x(2,3) >= 5
ord(2,3):  x(2,2) - x(2,3) >= 8
ord(3,1):  x(3,1) - x(3,3) >= 4
ord(3,2):  x(3,0) - x(3,1) >= 8
ord(3,3):  - x(3,0) + x(3,2) >= 10
triangle2(0,1,0):  y(0,1,0) + y(1,0,0) = 1
triangle2(0,1,1):  y(0,1,1) + y(1,0,1) = 1
triangle2(0,1,2):  y(0,1,2) + y(1,0,2) = 1
triangle2(0,1,3):  y(0,1,3) + y(1,0,3) = 1
triangle2(0,2,0):  y(0,2,0) + y(2,0,0) = 1
triangle2(0,2,1):  y(0,2,1) + y(2,0,1) = 1
triangle2(0,2,2):  y(0,2,2) + y(2,0,2) = 1
triangle2(0,2,3):  y(0,2,3) + y(2,0,3) = 1
triangle2(0,3,0):  y(0,3,0) + y(3,0,0) = 1
triangle2(0,3,1):  y(0,3,1) + y(3,0,1) = 1
triangle2(0,3,2):  y(0,3,2) + y(3,0,2) = 1
triangle2(0,3,3):  y(0,3,3) + y(3,0,3) = 1
triangle2(1,2,0):  y(1,2,0) + y(2,1,0) = 1
triangle2(1,2,1):  y(1,2,1) + y(2,1,1) = 1
triangle2(1,2,2):  y(1,2,2) + y(2,1,2) = 1
triangle2(1,2,3):  y(1,2,3) + y(2,1,3) = 1
triangle2(1,3,0):  y(1,3,0) + y(3,1,0) = 1
triangle2(1,3,1):  y(1,3,1) + y(3,1,1) = 1
triangle2(1,3,2):  y(1,3,2) + y(3,1,2) = 1
triangle2(1,3,3):  y(1,3,3) + y(3,1,3) = 1
triangle2(2,3,0):  y(2,3,0) + y(3,2,0) = 1
triangle2(2,3,1):  y(2,3,1) + y(3,2,1) = 1
triangle2(2,3,2):  y(2,3,2) + y(3,2,2) = 1
triangle2(2,3,3):  y(2,3,3) + y(3,2,3) = 1
MCLinV(0,1,0):  x(0,0) - v(0,1,0) - x(1,0) = 6
MCLinV(1,0,0):  - x(0,0) - v(1,0,0) + x(1,0) = 8
MCLin1(0,1,0):  u(0,1,0) >= -0
MCLin2(0,1,0):  -95 y(1,0,0) - u(0,1,0) <= -0
MCLin3(0,1,0):  64 y(1,0,0) + v(0,1,0) - u(0,1,0) <= 64
MCLin4(0,1,0):  64 y(1,0,0) - u(0,1,0) >= -0
MCLin5(0,1,0):  -95 y(1,0,0) + v(0,1,0) - u(0,1,0) >= -95
MCLin6(1,0,0):  u(1,0,0) >= -0
MCLin7(1,0,0):  -78 y(0,1,0) - u(1,0,0) <= -0
MCLin8(1,0,0):  81 y(0,1,0) + v(1,0,0) - u(1,0,0) <= 81
MCLin9(1,0,0):  81 y(0,1,0) - u(1,0,0) >= -0
MCLin10(1,0,0):  -78 y(0,1,0) + v(1,0,0) - u(1,0,0) >= -78
MCLinV(0,1,1):  x(0,1) - v(0,1,1) - x(1,1) = 10
MCLinV(1,0,1):  - x(0,1) - v(1,0,1) + x(1,1) = 6
MCLin1(0,1,1):  u(0,1,1) >= -0
MCLin2(0,1,1):  -93 y(1,0,1) - u(0,1,1) <= -0
MCLin3(0,1,1):  66 y(1,0,1) + v(0,1,1) - u(0,1,1) <= 66
MCLin4(0,1,1):  66 y(1,0,1) - u(0,1,1) >= -0
MCLin5(0,1,1):  -93 y(1,0,1) + v(0,1,1) - u(0,1,1) >= -93
MCLin6(1,0,1):  u(1,0,1) >= -0
MCLin7(1,0,1):  -82 y(0,1,1) - u(1,0,1) <= -0
MCLin8(1,0,1):  77 y(0,1,1) + v(1,0,1) - u(1,0,1) <= 77
MCLin9(1,0,1):  77 y(0,1,1) - u(1,0,1) >= -0
MCLin10(1,0,1):  -82 y(0,1,1) + v(1,0,1) - u(1,0,1) >= -82
MCLinV(0,1,2):  x(0,2) - v(0,1,2) - x(1,2) = 1
MCLinV(1,0,2):  - x(0,2) - v(1,0,2) + x(1,2) = 10
MCLin1(0,1,2):  u(0,1,2) >= -0
MCLin2(0,1,2):  -67 y(1,0,2) - u(0,1,2) <= -0
MCLin3(0,1,2):  92 y(1,0,2) + v(0,1,2) - u(0,1,2) <= 92
MCLin4(0,1,2):  92 y(1,0,2) - u(0,1,2) >= -0
MCLin5(0,1,2):  -67 y(1,0,2) + v(0,1,2) - u(0,1,2) >= -67
MCLin6(1,0,2):  u(1,0,2) >= -0
MCLin7(1,0,2):  -103 y(0,1,2) - u(1,0,2) <= -0
MCLin8(1,0,2):  56 y(0,1,2) + v(1,0,2) - u(1,0,2) <= 56
MCLin9(1,0,2):  56 y(0,1,2) - u(1,0,2) >= -0
MCLin10(1,0,2):  -103 y(0,1,2) + v(1,0,2) - u(1,0,2) >= -103
MCLinV(0,1,3):  x(0,3) - v(0,1,3) - x(1,3) = 4
MCLinV(1,0,3):  - x(0,3) - v(1,0,3) + x(1,3) = 2
MCLin1(0,1,3):  u(0,1,3) >= -0
MCLin2(0,1,3):  -91 y(1,0,3) - u(0,1,3) <= -0
MCLin3(0,1,3):  68 y(1,0,3) + v(0,1,3) - u(0,1,3) <= 68
MCLin4(0,1,3):  68 y(1,0,3) - u(0,1,3) >= -0
MCLin5(0,1,3):  -91 y(1,0,3) + v(0,1,3) - u(0,1,3) >= -91
MCLin6(1,0,3):  u(1,0,3) >= -0
MCLin7(1,0,3):  -74 y(0,1,3) - u(1,0,3) <= -0
MCLin8(1,0,3):  85 y(0,1,3) + v(1,0,3) - u(1,0,3) <= 85
MCLin9(1,0,3):  85 y(0,1,3) - u(1,0,3) >= -0
MCLin10(1,0,3):  -74 y(0,1,3) + v(1,0,3) - u(1,0,3) >= -74
MCLinV(0,2,0):  x(0,0) - v(0,2,0) - x(2,0) = 5
MCLinV(2,0,0):  - x(0,0) - v(2,0,0) + x(2,0) = 8
MCLin1(0,2,0):  u(0,2,0) >= -0
MCLin2(0,2,0):  -83 y(2,0,0) - u(0,2,0) <= -0
MCLin3(0,2,0):  71 y(2,0,0) + v(0,2,0) - u(0,2,0) <= 71
MCLin4(0,2,0):  71 y(2,0,0) - u(0,2,0) >= -0
MCLin5(0,2,0):  -83 y(2,0,0) + v(0,2,0) - u(0,2,0) >= -83
MCLin6(2,0,0):  u(2,0,0) >= -0
MCLin7(2,0,0):  -84 y(0,2,0) - u(2,0,0) <= -0
MCLin8(2,0,0):  70 y(0,2,0) + v(2,0,0) - u(2,0,0) <= 70
MCLin9(2,0,0):  70 y(0,2,0) - u(2,0,0) >= -0
MCLin10(2,0,0):  -84 y(0,2,0) + v(2,0,0) - u(2,0,0) >= -84
MCLinV(0,2,1):  x(0,1) - v(0,2,1) - x(2,1) = 9
MCLinV(2,0,1):  - x(0,1) - v(2,0,1) + x(2,1) = 6
MCLin1(0,2,1):  u(0,2,1) >= -0
MCLin2(0,2,1):  -86 y(2,0,1) - u(0,2,1) <= -0
MCLin3(0,2,1):  68 y(2,0,1) + v(0,2,1) - u(0,2,1) <= 68
MCLin4(0,2,1):  68 y(2,0,1) - u(0,2,1) >= -0
MCLin5(0,2,1):  -86 y(2,0,1) + v(0,2,1) - u(0,2,1) >= -86
MCLin6(2,0,1):  u(2,0,1) >= -0
MCLin7(2,0,1):  -83 y(0,2,1) - u(2,0,1) <= -0
MCLin8(2,0,1):  71 y(0,2,1) + v(2,0,1) - u(2,0,1) <= 71
MCLin9(2,0,1):  71 y(0,2,1) - u(2,0,1) >= -0
MCLin10(2,0,1):  -83 y(0,2,1) + v(2,0,1) - u(2,0,1) >= -83
MCLinV(0,2,2):  x(0,2) - v(0,2,2) - x(2,2) = 4
MCLinV(2,0,2):  - x(0,2) - v(2,0,2) + x(2,2) = 10
MCLin1(0,2,2):  u(0,2,2) >= -0
MCLin2(0,2,2):  -87 y(2,0,2) - u(0,2,2) <= -0
MCLin3(0,2,2):  67 y(2,0,2) + v(0,2,2) - u(0,2,2) <= 67
MCLin4(0,2,2):  67 y(2,0,2) - u(0,2,2) >= -0
MCLin5(0,2,2):  -87 y(2,0,2) + v(0,2,2) - u(0,2,2) >= -87
MCLin6(2,0,2):  u(2,0,2) >= -0
MCLin7(2,0,2):  -81 y(0,2,2) - u(2,0,2) <= -0
MCLin8(2,0,2):  73 y(0,2,2) + v(2,0,2) - u(2,0,2) <= 73
MCLin9(2,0,2):  73 y(0,2,2) - u(2,0,2) >= -0
MCLin10(2,0,2):  -81 y(0,2,2) + v(2,0,2) - u(2,0,2) >= -81
MCLinV(0,2,3):  x(0,3) - v(0,2,3) - x(2,3) = 8
MCLinV(2,0,3):  - x(0,3) - v(2,0,3) + x(2,3) = 2
MCLin1(0,2,3):  u(0,2,3) >= -0
MCLin2(0,2,3):  -93 y(2,0,3) - u(0,2,3) <= -0
MCLin3(0,2,3):  61 y(2,0,3) + v(0,2,3) - u(0,2,3) <= 61
MCLin4(0,2,3):  61 y(2,0,3) - u(0,2,3) >= -0
MCLin5(0,2,3):  -93 y(2,0,3) + v(0,2,3) - u(0,2,3) >= -93
MCLin6(2,0,3):  u(2,0,3) >= -0
MCLin7(2,0,3):  -71 y(0,2,3) - u(2,0,3) <= -0
MCLin8(2,0,3):  83 y(0,2,3) + v(2,0,3) - u(2,0,3) <= 83
MCLin9(2,0,3):  83 y(0,2,3) - u(2,0,3) >= -0
MCLin10(2,0,3):  -71 y(0,2,3) + v(2,0,3) - u(2,0,3) >= -71
MCLinV(0,3,0):  x(0,0) - v(0,3,0) - x(3,0) = 10
MCLinV(3,0,0):  - x(0,0) - v(3,0,0) + x(3,0) = 8
MCLin1(0,3,0):  u(0,3,0) >= -0
MCLin2(0,3,0):  -87 y(3,0,0) - u(0,3,0) <= -0
MCLin3(0,3,0):  63 y(3,0,0) + v(0,3,0) - u(0,3,0) <= 63
MCLin4(0,3,0):  63 y(3,0,0) - u(0,3,0) >= -0
MCLin5(0,3,0):  -87 y(3,0,0) + v(0,3,0) - u(0,3,0) >= -87
MCLin6(3,0,0):  u(3,0,0) >= -0
MCLin7(3,0,0):  -81 y(0,3,0) - u(3,0,0) <= -0
MCLin8(3,0,0):  69 y(0,3,0) + v(3,0,0) - u(3,0,0) <= 69
MCLin9(3,0,0):  69 y(0,3,0) - u(3,0,0) >= -0
MCLin10(3,0,0):  -81 y(0,3,0) + v(3,0,0) - u(3,0,0) >= -81
MCLinV(0,3,1):  x(0,1) - v(0,3,1) - x(3,1) = 8
MCLinV(3,0,1):  - x(0,1) - v(3,0,1) + x(3,1) = 6
MCLin1(0,3,1):  u(0,3,1) >= -0
MCLin2(0,3,1):  -85 y(3,0,1) - u(0,3,1) <= -0
MCLin3(0,3,1):  65 y(3,0,1) + v(0,3,1) - u(0,3,1) <= 65
MCLin4(0,3,1):  65 y(3,0,1) - u(0,3,1) >= -0
MCLin5(0,3,1):  -85 y(3,0,1) + v(0,3,1) - u(0,3,1) >= -85
MCLin6(3,0,1):  u(3,0,1) >= -0
MCLin7(3,0,1):  -79 y(0,3,1) - u(3,0,1) <= -0
MCLin8(3,0,1):  71 y(0,3,1) + v(3,0,1) - u(3,0,1) <= 71
MCLin9(3,0,1):  71 y(0,3,1) - u(3,0,1) >= -0
MCLin10(3,0,1):  -79 y(0,3,1) + v(3,0,1) - u(3,0,1) >= -79
MCLinV(0,3,2):  x(0,2) - v(0,3,2) - x(3,2) = 8
MCLinV(3,0,2):  - x(0,2) - v(3,0,2) + x(3,2) = 10
MCLin1(0,3,2):  u(0,3,2) >= -0
MCLin2(0,3,2):  -87 y(3,0,2) - u(0,3,2) <= -0
MCLin3(0,3,2):  63 y(3,0,2) + v(0,3,2) - u(0,3,2) <= 63
MCLin4(0,3,2):  63 y(3,0,2) - u(0,3,2) >= -0
MCLin5(0,3,2):  -87 y(3,0,2) + v(0,3,2) - u(0,3,2) >= -87
MCLin6(3,0,2):  u(3,0,2) >= -0
MCLin7(3,0,2):  -81 y(0,3,2) - u(3,0,2) <= -0
MCLin8(3,0,2):  69 y(0,3,2) + v(3,0,2) - u(3,0,2) <= 69
MCLin9(3,0,2):  69 y(0,3,2) - u(3,0,2) >= -0
MCLin10(3,0,2):  -81 y(0,3,2) + v(3,0,2) - u(3,0,2) >= -81
MCLinV(0,3,3):  x(0,3) - v(0,3,3) - x(3,3) = 4
MCLinV(3,0,3):  - x(0,3) - v(3,0,3) + x(3,3) = 2
MCLin1(0,3,3):  u(0,3,3) >= -0
MCLin2(0,3,3):  -71 y(3,0,3) - u(0,3,3) <= -0
MCLin3(0,3,3):  79 y(3,0,3) + v(0,3,3) - u(0,3,3) <= 79
MCLin4(0,3,3):  79 y(3,0,3) - u(0,3,3) >= -0
MCLin5(0,3,3):  -71 y(3,0,3) + v(0,3,3) - u(0,3,3) >= -71
MCLin6(3,0,3):  u(3,0,3) >= -0
MCLin7(3,0,3):  -85 y(0,3,3) - u(3,0,3) <= -0
MCLin8(3,0,3):  65 y(0,3,3) + v(3,0,3) - u(3,0,3) <= 65
MCLin9(3,0,3):  65 y(0,3,3) - u(3,0,3) >= -0
MCLin10(3,0,3):  -85 y(0,3,3) + v(3,0,3) - u(3,0,3) >= -85
MCLinV(1,2,0):  x(1,0) - v(1,2,0) - x(2,0) = 5
MCLinV(2,1,0):  - x(1,0) - v(2,1,0) + x(2,0) = 6
MCLin1(1,2,0):  u(1,2,0) >= -0
MCLin2(1,2,0):  -76 y(2,1,0) - u(1,2,0) <= -0
MCLin3(1,2,0):  83 y(2,1,0) + v(1,2,0) - u(1,2,0) <= 83
MCLin4(1,2,0):  83 y(2,1,0) - u(1,2,0) >= -0
MCLin5(1,2,0):  -76 y(2,1,0) + v(1,2,0) - u(1,2,0) >= -76
MCLin6(2,1,0):  u(2,1,0) >= -0
MCLin7(2,1,0):  -94 y(1,2,0) - u(2,1,0) <= -0
MCLin8(2,1,0):  65 y(1,2,0) + v(2,1,0) - u(2,1,0) <= 65
MCLin9(2,1,0):  65 y(1,2,0) - u(2,1,0) >= -0
MCLin10(2,1,0):  -94 y(1,2,0) + v(2,1,0) - u(2,1,0) >= -94
MCLinV(1,2,1):  x(1,1) - v(1,2,1) - x(2,1) = 9
MCLinV(2,1,1):  - x(1,1) - v(2,1,1) + x(2,1) = 10
MCLin1(1,2,1):  u(1,2,1) >= -0
MCLin2(1,2,1):  -85 y(2,1,1) - u(1,2,1) <= -0
MCLin3(1,2,1):  74 y(2,1,1) + v(1,2,1) - u(1,2,1) <= 74
MCLin4(1,2,1):  74 y(2,1,1) - u(1,2,1) >= -0
MCLin5(1,2,1):  -85 y(2,1,1) + v(1,2,1) - u(1,2,1) >= -85
MCLin6(2,1,1):  u(2,1,1) >= -0
MCLin7(2,1,1):  -93 y(1,2,1) - u(2,1,1) <= -0
MCLin8(2,1,1):  66 y(1,2,1) + v(2,1,1) - u(2,1,1) <= 66
MCLin9(2,1,1):  66 y(1,2,1) - u(2,1,1) >= -0
MCLin10(2,1,1):  -93 y(1,2,1) + v(2,1,1) - u(2,1,1) >= -93
MCLinV(1,2,2):  x(1,2) - v(1,2,2) - x(2,2) = 4
MCLinV(2,1,2):  - x(1,2) - v(2,1,2) + x(2,2) = 1
MCLin1(1,2,2):  u(1,2,2) >= -0
MCLin2(1,2,2):  -103 y(2,1,2) - u(1,2,2) <= -0
MCLin3(1,2,2):  56 y(2,1,2) + v(1,2,2) - u(1,2,2) <= 56
MCLin4(1,2,2):  56 y(2,1,2) - u(1,2,2) >= -0
MCLin5(1,2,2):  -103 y(2,1,2) + v(1,2,2) - u(1,2,2) >= -103
MCLin6(2,1,2):  u(2,1,2) >= -0
MCLin7(2,1,2):  -61 y(1,2,2) - u(2,1,2) <= -0
MCLin8(2,1,2):  98 y(1,2,2) + v(2,1,2) - u(2,1,2) <= 98
MCLin9(2,1,2):  98 y(1,2,2) - u(2,1,2) >= -0
MCLin10(2,1,2):  -61 y(1,2,2) + v(2,1,2) - u(2,1,2) >= -61
MCLinV(1,2,3):  x(1,3) - v(1,2,3) - x(2,3) = 8
MCLinV(2,1,3):  - x(1,3) - v(2,1,3) + x(2,3) = 4
MCLin1(1,2,3):  u(1,2,3) >= -0
MCLin2(1,2,3):  -88 y(2,1,3) - u(1,2,3) <= -0
MCLin3(1,2,3):  71 y(2,1,3) + v(1,2,3) - u(1,2,3) <= 71
MCLin4(1,2,3):  71 y(2,1,3) - u(1,2,3) >= -0
MCLin5(1,2,3):  -88 y(2,1,3) + v(1,2,3) - u(1,2,3) >= -88
MCLin6(2,1,3):  u(2,1,3) >= -0
MCLin7(2,1,3):  -83 y(1,2,3) - u(2,1,3) <= -0
MCLin8(2,1,3):  76 y(1,2,3) + v(2,1,3) - u(2,1,3) <= 76
MCLin9(2,1,3):  76 y(1,2,3) - u(2,1,3) >= -0
MCLin10(2,1,3):  -83 y(1,2,3) + v(2,1,3) - u(2,1,3) >= -83
MCLinV(1,3,0):  x(1,0) - v(1,3,0) - x(3,0) = 10
MCLinV(3,1,0):  - x(1,0) - v(3,1,0) + x(3,0) = 6
MCLin1(1,3,0):  u(1,3,0) >= -0
MCLin2(1,3,0):  -80 y(3,1,0) - u(1,3,0) <= -0
MCLin3(1,3,0):  75 y(3,1,0) + v(1,3,0) - u(1,3,0) <= 75
MCLin4(1,3,0):  75 y(3,1,0) - u(1,3,0) >= -0
MCLin5(1,3,0):  -80 y(3,1,0) + v(1,3,0) - u(1,3,0) >= -80
MCLin6(3,1,0):  u(3,1,0) >= -0
MCLin7(3,1,0):  -91 y(1,3,0) - u(3,1,0) <= -0
MCLin8(3,1,0):  64 y(1,3,0) + v(3,1,0) - u(3,1,0) <= 64
MCLin9(3,1,0):  64 y(1,3,0) - u(3,1,0) >= -0
MCLin10(3,1,0):  -91 y(1,3,0) + v(3,1,0) - u(3,1,0) >= -91
MCLinV(1,3,1):  x(1,1) - v(1,3,1) - x(3,1) = 8
MCLinV(3,1,1):  - x(1,1) - v(3,1,1) + x(3,1) = 10
MCLin1(1,3,1):  u(1,3,1) >= -0
MCLin2(1,3,1):  -84 y(3,1,1) - u(1,3,1) <= -0
MCLin3(1,3,1):  71 y(3,1,1) + v(1,3,1) - u(1,3,1) <= 71
MCLin4(1,3,1):  71 y(3,1,1) - u(1,3,1) >= -0
MCLin5(1,3,1):  -84 y(3,1,1) + v(1,3,1) - u(1,3,1) >= -84
MCLin6(3,1,1):  u(3,1,1) >= -0
MCLin7(3,1,1):  -89 y(1,3,1) - u(3,1,1) <= -0
MCLin8(3,1,1):  66 y(1,3,1) + v(3,1,1) - u(3,1,1) <= 66
MCLin9(3,1,1):  66 y(1,3,1) - u(3,1,1) >= -0
MCLin10(3,1,1):  -89 y(1,3,1) + v(3,1,1) - u(3,1,1) >= -89
MCLinV(1,3,2):  x(1,2) - v(1,3,2) - x(3,2) = 8
MCLinV(3,1,2):  - x(1,2) - v(3,1,2) + x(3,2) = 1
MCLin1(1,3,2):  u(1,3,2) >= -0
MCLin2(1,3,2):  -103 y(3,1,2) - u(1,3,2) <= -0
MCLin3(1,3,2):  52 y(3,1,2) + v(1,3,2) - u(1,3,2) <= 52
MCLin4(1,3,2):  52 y(3,1,2) - u(1,3,2) >= -0
MCLin5(1,3,2):  -103 y(3,1,2) + v(1,3,2) - u(1,3,2) >= -103
MCLin6(3,1,2):  u(3,1,2) >= -0
MCLin7(3,1,2):  -61 y(1,3,2) - u(3,1,2) <= -0
MCLin8(3,1,2):  94 y(1,3,2) + v(3,1,2) - u(3,1,2) <= 94
MCLin9(3,1,2):  94 y(1,3,2) - u(3,1,2) >= -0
MCLin10(3,1,2):  -61 y(1,3,2) + v(3,1,2) - u(3,1,2) >= -61
MCLinV(1,3,3):  x(1,3) - v(1,3,3) - x(3,3) = 4
MCLinV(3,1,3):  - x(1,3) - v(3,1,3) + x(3,3) = 4
MCLin1(1,3,3):  u(1,3,3) >= -0
MCLin2(1,3,3):  -66 y(3,1,3) - u(1,3,3) <= -0
MCLin3(1,3,3):  89 y(3,1,3) + v(1,3,3) - u(1,3,3) <= 89
MCLin4(1,3,3):  89 y(3,1,3) - u(1,3,3) >= -0
MCLin5(1,3,3):  -66 y(3,1,3) + v(1,3,3) - u(1,3,3) >= -66
MCLin6(3,1,3):  u(3,1,3) >= -0
MCLin7(3,1,3):  -97 y(1,3,3) - u(3,1,3) <= -0
MCLin8(3,1,3):  58 y(1,3,3) + v(3,1,3) - u(3,1,3) <= 58
MCLin9(3,1,3):  58 y(1,3,3) - u(3,1,3) >= -0
MCLin10(3,1,3):  -97 y(1,3,3) + v(3,1,3) - u(3,1,3) >= -97
MCLinV(2,3,0):  x(2,0) - v(2,3,0) - x(3,0) = 10
MCLinV(3,2,0):  - x(2,0) - v(3,2,0) + x(3,0) = 5
MCLin1(2,3,0):  u(2,3,0) >= -0
MCLin2(2,3,0):  -86 y(3,2,0) - u(2,3,0) <= -0
MCLin3(2,3,0):  64 y(3,2,0) + v(2,3,0) - u(2,3,0) <= 64
MCLin4(2,3,0):  64 y(3,2,0) - u(2,3,0) >= -0
MCLin5(2,3,0):  -86 y(3,2,0) + v(2,3,0) - u(2,3,0) >= -86
MCLin6(3,2,0):  u(3,2,0) >= -0
MCLin7(3,2,0):  -79 y(2,3,0) - u(3,2,0) <= -0
MCLin8(3,2,0):  71 y(2,3,0) + v(3,2,0) - u(3,2,0) <= 71
MCLin9(3,2,0):  71 y(2,3,0) - u(3,2,0) >= -0
MCLin10(3,2,0):  -79 y(2,3,0) + v(3,2,0) - u(3,2,0) >= -79
MCLinV(2,3,1):  x(2,1) - v(2,3,1) - x(3,1) = 8
MCLinV(3,2,1):  - x(2,1) - v(3,2,1) + x(3,1) = 9
MCLin1(2,3,1):  u(2,3,1) >= -0
MCLin2(2,3,1):  -85 y(3,2,1) - u(2,3,1) <= -0
MCLin3(2,3,1):  65 y(3,2,1) + v(2,3,1) - u(2,3,1) <= 65
MCLin4(2,3,1):  65 y(3,2,1) - u(2,3,1) >= -0
MCLin5(2,3,1):  -85 y(3,2,1) + v(2,3,1) - u(2,3,1) >= -85
MCLin6(3,2,1):  u(3,2,1) >= -0
MCLin7(3,2,1):  -82 y(2,3,1) - u(3,2,1) <= -0
MCLin8(3,2,1):  68 y(2,3,1) + v(3,2,1) - u(3,2,1) <= 68
MCLin9(3,2,1):  68 y(2,3,1) - u(3,2,1) >= -0
MCLin10(3,2,1):  -82 y(2,3,1) + v(3,2,1) - u(3,2,1) >= -82
MCLinV(2,3,2):  x(2,2) - v(2,3,2) - x(3,2) = 8
MCLinV(3,2,2):  - x(2,2) - v(3,2,2) + x(3,2) = 4
MCLin1(2,3,2):  u(2,3,2) >= -0
MCLin2(2,3,2):  -81 y(3,2,2) - u(2,3,2) <= -0
MCLin3(2,3,2):  69 y(3,2,2) + v(2,3,2) - u(2,3,2) <= 69
MCLin4(2,3,2):  69 y(3,2,2) - u(2,3,2) >= -0
MCLin5(2,3,2):  -81 y(3,2,2) + v(2,3,2) - u(2,3,2) >= -81
MCLin6(3,2,2):  u(3,2,2) >= -0
MCLin7(3,2,2):  -81 y(2,3,2) - u(3,2,2) <= -0
MCLin8(3,2,2):  69 y(2,3,2) + v(3,2,2) - u(3,2,2) <= 69
MCLin9(3,2,2):  69 y(2,3,2) - u(3,2,2) >= -0
MCLin10(3,2,2):  -81 y(2,3,2) + v(3,2,2) - u(3,2,2) >= -81
MCLinV(2,3,3):  x(2,3) - v(2,3,3) - x(3,3) = 4
MCLinV(3,2,3):  - x(2,3) - v(3,2,3) + x(3,3) = 8
MCLin1(2,3,3):  u(2,3,3) >= -0
MCLin2(2,3,3):  -63 y(3,2,3) - u(2,3,3) <= -0
MCLin3(2,3,3):  87 y(3,2,3) + v(2,3,3) - u(2,3,3) <= 87
MCLin4(2,3,3):  87 y(3,2,3) - u(2,3,3) >= -0
MCLin5(2,3,3):  -63 y(3,2,3) + v(2,3,3) - u(2,3,3) >= -63
MCLin6(3,2,3):  u(3,2,3) >= -0
MCLin7(3,2,3):  -99 y(2,3,3) - u(3,2,3) <= -0
MCLin8(3,2,3):  51 y(2,3,3) + v(3,2,3) - u(3,2,3) <= 51
MCLin9(3,2,3):  51 y(2,3,3) - u(3,2,3) >= -0
MCLin10(3,2,3):  -99 y(2,3,3) + v(3,2,3) - u(3,2,3) >= -99
makespan(0):  C - x(0,2) >= 10
makespan(1):  C - x(1,0) >= 6
makespan(2):  C - x(2,2) >= 4
makespan(3):  C - x(3,2) >= 8
cut_clique_0(0123,0):  0.01262 x(0,0) + 0.01133 x(1,0) + 0.00944 x(2,0) + 0.01889 x(3,0) >= 1
cut_clique_0(023,0):  0.01916 x(0,0) + 0.01460 x(2,0) + 0.02920 x(3,0) >= 1
cut_clique_0(123,0):  0.02264 x(1,0) + 0.00545 x(2,0) + 0.02911 x(3,0) >= 1
cut_clique_0(012,0):  0.02222 x(0,0) + 0.02222 x(1,0) + 0.02222 x(2,0) >= 1
cut_clique_0(013,0):  0.00937 x(0,0) + 0.01756 x(1,0) + 0.02927 x(3,0) >= 1
cut_clique_0(0123,1):  0.11111 x(0,1) + 0.16667 x(2,1) >= 1
cut_clique_0(012,1):  0.11111 x(0,1) + 0.16667 x(2,1) >= 1
cut_clique_0(013,1):  0.07576 x(0,1) + 0.16667 x(1,1) >= 1
cut_clique_0(023,1):  0.11111 x(0,1) + 0.16667 x(2,1) >= 1
cut_clique_0(123,1):  0.11111 x(1,1) + 0.08081 x(2,1) >= 1
cut_clique_0(0123,2):  0.00690 x(0,2) + 0.01034 x(2,2) + 0.02069 x(3,2) >= 1
cut_clique_0(023,2):  0.00690 x(0,2) + 0.01034 x(2,2) + 0.02069 x(3,2) >= 1
cut_clique_0(012,2):  0.01235 x(0,2) + 0.03086 x(2,2) >= 1
cut_clique_0(013,2):  0.00935 x(0,2) + 0.03271 x(3,2) >= 1
cut_clique_0(123,2):  0.01351 x(2,2) + 0.02703 x(3,2) >= 1
cut_clique_0(0123,3):  0.00568 x(1,3) + 0.06250 x(2,3) >= 1
cut_clique_0(012,3):  0.00568 x(1,3) + 0.06250 x(2,3) >= 1
cut_clique_0(123,3):  0.00568 x(1,3) + 0.06250 x(2,3) >= 1
cut_clique_1(0123,1):  0.01485 x(0,1) + 0.02475 x(1,1) + 0.02228 x(2,1) + 0.01980 x(3,1) >= 1
Bounds
 0 <= C <= 103
 8 <= x(0,0) <= 85
 0 <= y(0,1,0) <= 1
 0 <= y(1,0,0) <= 1
 -95 <= v(0,1,0) <= 64
 -78 <= v(1,0,0) <= 81
 -1030 <= u(0,1,0)
 -1030 <= u(1,0,0)
 0 <= y(0,2,0) <= 1
 0 <= y(2,0,0) <= 1
 -83 <= v(0,2,0) <= 71
 -84 <= v(2,0,0) <= 70
 -1030 <= u(0,2,0)
 -1030 <= u(2,0,0)
 0 <= y(0,3,0) <= 1
 0 <= y(3,0,0) <= 1
 -87 <= v(0,3,0) <= 63
 -81 <= v(3,0,0) <= 69
 -1030 <= u(0,3,0)
 -1030 <= u(3,0,0)
 15 <= x(1,0) <= 97
 0 <= y(1,2,0) <= 1
 0 <= y(2,1,0) <= 1
 -76 <= v(1,2,0) <= 83
 -94 <= v(2,1,0) <= 65
 -1030 <= u(1,2,0)
 -1030 <= u(2,1,0)
 0 <= y(1,3,0) <= 1
 0 <= y(3,1,0) <= 1
 -80 <= v(1,3,0) <= 75
 -91 <= v(3,1,0) <= 64
 -1030 <= u(1,3,0)
 -1030 <= u(3,1,0)
 9 <= x(2,0) <= 86
 0 <= y(2,3,0) <= 1
 0 <= y(3,2,0) <= 1
 -86 <= v(2,3,0) <= 64
 -79 <= v(3,2,0) <= 71
 -1030 <= u(2,3,0)
 -1030 <= u(3,2,0)
 12 <= x(3,0) <= 85
 0 <= x(0,1) <= 77
 0 <= y(0,1,1) <= 1
 0 <= y(1,0,1) <= 1
 -93 <= v(0,1,1) <= 66
 -82 <= v(1,0,1) <= 77
 -1030 <= u(0,1,1)
 -1030 <= u(1,0,1)
 0 <= y(0,2,1) <= 1
 0 <= y(2,0,1) <= 1
 -86 <= v(0,2,1) <= 68
 -83 <= v(2,0,1) <= 71
 -1030 <= u(0,2,1)
 -1030 <= u(2,0,1)
 0 <= y(0,3,1) <= 1
 0 <= y(3,0,1) <= 1
 -85 <= v(0,3,1) <= 65
 -79 <= v(3,0,1) <= 71
 -1030 <= u(0,3,1)
 -1030 <= u(3,0,1)
 1 <= x(1,1) <= 83
 0 <= y(1,2,1) <= 1
 0 <= y(2,1,1) <= 1
 -85 <= v(1,2,1) <= 74
 -93 <= v(2,1,1) <= 66
 -1030 <= u(1,2,1)
 -1030 <= u(2,1,1)
 0 <= y(1,3,1) <= 1
 0 <= y(3,1,1) <= 1
 -84 <= v(1,3,1) <= 71
 -89 <= v(3,1,1) <= 66
 -1030 <= u(1,3,1)
 -1030 <= u(3,1,1)
 0 <= x(2,1) <= 77
 0 <= y(2,3,1) <= 1
 0 <= y(3,2,1) <= 1
 -85 <= v(2,3,1) <= 65
 -82 <= v(3,2,1) <= 68
 -1030 <= u(2,3,1)
 -1030 <= u(3,2,1)
 4 <= x(3,1) <= 77
 16 <= x(0,2) <= 93
 0 <= y(0,1,2) <= 1
 0 <= y(1,0,2) <= 1
 -67 <= v(0,1,2) <= 92
 -103 <= v(1,0,2) <= 56
 -1030 <= u(0,1,2)
 -1030 <= u(1,0,2)
 0 <= y(0,2,2) <= 1
 0 <= y(2,0,2) <= 1
 -87 <= v(0,2,2) <= 67
 -81 <= v(2,0,2) <= 73
 -1030 <= u(0,2,2)
 -1030 <= u(2,0,2)
 0 <= y(0,3,2) <= 1
 0 <= y(3,0,2) <= 1
 -87 <= v(0,3,2) <= 63
 -81 <= v(3,0,2) <= 69
 -1030 <= u(0,3,2)
 -1030 <= u(3,0,2)
 0 <= x(1,2) <= 82
 0 <= y(1,2,2) <= 1
 0 <= y(2,1,2) <= 1
 -103 <= v(1,2,2) <= 56
 -61 <= v(2,1,2) <= 98
 -1030 <= u(1,2,2)
 -1030 <= u(2,1,2)
 0 <= y(1,3,2) <= 1
 0 <= y(3,1,2) <= 1
 -103 <= v(1,3,2) <= 52
 -61 <= v(3,1,2) <= 94
 -1030 <= u(1,3,2)
 -1030 <= u(3,1,2)
 22 <= x(2,2) <= 99
 0 <= y(2,3,2) <= 1
 0 <= y(3,2,2) <= 1
 -81 <= v(2,3,2) <= 69
 -81 <= v(3,2,2) <= 69
 -1030 <= u(2,3,2)
 -1030 <= u(3,2,2)
 22 <= x(3,2) <= 95
 6 <= x(0,3) <= 83
 0 <= y(0,1,3) <= 1
 0 <= y(1,0,3) <= 1
 -91 <= v(0,1,3) <= 68
 -74 <= v(1,0,3) <= 85
 -1030 <= u(0,1,3)
 -1030 <= u(1,0,3)
 0 <= y(0,2,3) <= 1
 0 <= y(2,0,3) <= 1
 -93 <= v(0,2,3) <= 61
 -71 <= v(2,0,3) <= 83
 -1030 <= u(0,2,3)
 -1030 <= u(2,0,3)
 0 <= y(0,3,3) <= 1
 0 <= y(3,0,3) <= 1
 -71 <= v(0,3,3) <= 79
 -85 <= v(3,0,3) <= 65
 -1030 <= u(0,3,3)
 -1030 <= u(3,0,3)
 11 <= x(1,3) <= 93
 0 <= y(1,2,3) <= 1
 0 <= y(2,1,3) <= 1
 -88 <= v(1,2,3) <= 71
 -83 <= v(2,1,3) <= 76
 -1030 <= u(1,2,3)
 -1030 <= u(2,1,3)
 0 <= y(1,3,3) <= 1
 0 <= y(3,1,3) <= 1
 -66 <= v(1,3,3) <= 89
 -97 <= v(3,1,3) <= 58
 -1030 <= u(1,3,3)
 -1030 <= u(3,1,3)
 14 <= x(2,3) <= 91
 0 <= y(2,3,3) <= 1
 0 <= y(3,2,3) <= 1
 -63 <= v(2,3,3) <= 87
 -99 <= v(3,2,3) <= 51
 -1030 <= u(2,3,3)
 -1030 <= u(3,2,3)
 0 <= x(3,3) <= 73
Integers
C x(0,0) y(0,1,0) y(1,0,0) v(0,1,0) v(1,0,0) u(0,1,0) u(1,0,0) y(0,2,0) y(2,0,0) 
v(0,2,0) v(2,0,0) u(0,2,0) u(2,0,0) y(0,3,0) y(3,0,0) v(0,3,0) v(3,0,0) u(0,3,0) u(3,0,0) 
x(1,0) y(1,2,0) y(2,1,0) v(1,2,0) v(2,1,0) u(1,2,0) u(2,1,0) y(1,3,0) y(3,1,0) v(1,3,0) 
v(3,1,0) u(1,3,0) u(3,1,0) x(2,0) y(2,3,0) y(3,2,0) v(2,3,0) v(3,2,0) u(2,3,0) u(3,2,0) 
x(3,0) x(0,1) y(0,1,1) y(1,0,1) v(0,1,1) v(1,0,1) u(0,1,1) u(1,0,1) y(0,2,1) y(2,0,1) 
v(0,2,1) v(2,0,1) u(0,2,1) u(2,0,1) y(0,3,1) y(3,0,1) v(0,3,1) v(3,0,1) u(0,3,1) u(3,0,1) 
x(1,1) y(1,2,1) y(2,1,1) v(1,2,1) v(2,1,1) u(1,2,1) u(2,1,1) y(1,3,1) y(3,1,1) v(1,3,1) 
v(3,1,1) u(1,3,1) u(3,1,1) x(2,1) y(2,3,1) y(3,2,1) v(2,3,1) v(3,2,1) u(2,3,1) u(3,2,1) 
x(3,1) x(0,2) y(0,1,2) y(1,0,2) v(0,1,2) v(1,0,2) u(0,1,2) u(1,0,2) y(0,2,2) y(2,0,2) 
v(0,2,2) v(2,0,2) u(0,2,2) u(2,0,2) y(0,3,2) y(3,0,2) v(0,3,2) v(3,0,2) u(0,3,2) u(3,0,2) 
x(1,2) y(1,2,2) y(2,1,2) v(1,2,2) v(2,1,2) u(1,2,2) u(2,1,2) y(1,3,2) y(3,1,2) v(1,3,2) 
v(3,1,2) u(1,3,2) u(3,1,2) x(2,2) y(2,3,2) y(3,2,2) v(2,3,2) v(3,2,2) u(2,3,2) u(3,2,2) 
x(3,2) x(0,3) y(0,1,3) y(1,0,3) v(0,1,3) v(1,0,3) u(0,1,3) u(1,0,3) y(0,2,3) y(2,0,3) 
v(0,2,3) v(2,0,3) u(0,2,3) u(2,0,3) y(0,3,3) y(3,0,3) v(0,3,3) v(3,0,3) u(0,3,3) u(3,0,3) 
x(1,3) y(1,2,3) y(2,1,3) v(1,2,3) v(2,1,3) u(1,2,3) u(2,1,3) y(1,3,3) y(3,1,3) v(1,3,3) 
v(3,1,3) u(1,3,3) u(3,1,3) x(2,3) y(2,3,3) y(3,2,3) v(2,3,3) v(3,2,3) u(2,3,3) u(3,2,3) 
x(3,3) 
End
